(set-logic QF_S)
(declare-fun var0 () String)
(declare-fun var1 () Int)
(declare-fun var2 () Bool)
(declare-fun var3 () String)
(declare-fun var4 () Int)
(declare-fun var5 () Bool)
(declare-fun var6 () String)
(declare-fun var7 () Int)
(declare-fun var8 () Bool)
(assert (< (str.indexof (str.substr var6 var4 8) (str.replace "@""<G|{AK,W" var6 "{g>FFL-S\\A") (str.indexof var0 var6 var7)) (str.len var3)))
(assert (< (str.indexof (str.at var0 var4) (str.substr var6 var4 var4) (str.len var0)) (str.len var0)))
(assert (str.prefixof (str.replace (str.replace var3 var0 var3) (str.at var6 var1) (str.at var6 var1)) (str.at (str.at var0 var1) (str.indexof var6 var6))))
(assert (str.prefixof (str.replace var0 var0 var3) (str.replace var0 var0 var3)))
(check-sat)